170 300 142 104 146 133 107 105 124 100 127 130 111 129 101 135 112 109 115 127 101 112 120 125 124 111 142 107 134 147 116 141 146 132 120 116 114 101 146 138 101 123 142 137 101 144 122 138 127 137 139 128 124 109 127 122 145 118 129 128 140 120 143 109 101 112 125 116 138 121 128 140 144 120 126 119 138 122 106 114 134 120 116 132 129 117 103 123 135 107 125 149 127 142 108 128 129 107 144 116 102 147 130 146 141 131 139 128 102 146 116 110 140 106 142 118 123 146 115 132 102 114 131 103 130 113 131 108 145 150 150 148 146 129 117 136 134 106 138 137 126 103 121 115 134 113 107 106 133 147 138 135 110 143 138 114 130 143 123 125 142 122 122 111 125 139 121 109 145 108 120 145 